50 4
98 98 104 51 72 95 12 34 78 53 94 98 59 91 69 33 8 99 36 72 79 74 66 36 100 57 73 88 25 41 106 64 63 76 33 87 68 86 91 43 62 99 67 40 38 14 77 9 16 70
105 80 98 62 92 96 19 26 68 30 88 100 73 86 86 47 17 108 21 82 104 64 76 45 84 44 87 89 31 13 106 66 57 48 15 72 79 102 102 32 74 75 89 36 42 26 62 9 20 60
105 100 99 55 90 83 31 54 82 52 72 82 66 80 95 57 34 92 28 92 104 63 88 36 102 44 77 88 39 37 85 80 50 76 23 72 73 97 85 44 77 74 94 39 35 42 73 29 20 79
89 85 101 45 87 91 21 29 81 33 77 95 71 71 90 37 9 93 15 93 108 76 65 25 97 55 83 93 51 16 81 88 62 48 19 74 64 89 92 47 74 82 97 55 42 14 85 11 27 80
